234669
1,84,35,69,36,48,60,34,81,71,61,24,20,39,55,89,63,15,64,45,31,77,59,104,2,53,47,40,66,70,103,37,94,10,21,44,83,38,17,6,99,50,52,32,72,62,74,3,41,8,91,7,96,30,51,4,54,28,29,16,85,5,76,87,68,97,12,19,18,105,80,67,49,79,22,11,88,82,56,73,23,101,25,33,57,9,26,27,58,65,43,86,0,75,92,46,102,13,98,14,90,78,42,95,100,93